NAME : eil101.249.tour
COMMENT : Length = 249
COMMENT : Found by LKH [Keld Helsgaun] Wed May 29 17:05:39 2013
TYPE : TOUR
DIMENSION : 21
TOUR_SECTION
34
29
54
39
23
41
42
14
44
99
6
60
8
47
49
64
11
10
30
20
35
-1
EOF
